c Random 3-SAT formula
c Number of variables: 7
c Number of clauses: 30
p cnf 7 30
-7 4 3 0
6 -7 4 0
-5 -7 -4 0
-1 -5 2 0
1 -3 -6 0
5 -7 -3 0
-5 -4 7 0
-1 2 5 0
-7 2 -6 0
-3 -6 -1 0
2 -1 -5 0
7 -4 5 0
-6 2 5 0
-5 1 -7 0
-2 -3 -5 0
-4 -5 2 0
4 5 6 0
-3 -7 2 0
-5 4 -7 0
-3 -1 -4 0
-2 3 7 0
5 7 -6 0
6 5 -1 0
-7 5 1 0
-5 7 -6 0
-2 -7 3 0
6 1 2 0
-2 6 -1 0
-1 -4 -6 0
4 2 1 0
